20 64 
1 5 1
1 6 1
1 13 1
1 17 1
1 20 1
2 5 1
2 6 1
2 7 1
2 12 1
2 13 1
2 14 1
2 17 1
3 5 1
3 6 1
3 9 1
3 10 1
3 11 1
3 12 1
3 17 1
3 19 1
4 5 1
4 7 1
4 8 1
4 9 1
4 15 1
5 6 1
5 7 1
5 8 1
5 9 1
5 11 1
5 12 1
5 14 1
5 15 1
5 16 1
5 19 1
5 20 1
6 7 1
6 8 1
6 9 1
6 14 1
6 15 1
6 16 1
6 18 1
6 19 1
6 20 1
7 8 1
7 10 1
7 13 1
7 15 1
7 19 1
8 10 1
8 16 1
9 10 1
9 11 1
9 13 1
9 17 1
10 11 1
10 12 1
11 14 1
11 16 1
11 18 1
11 20 1
12 18 1
14 18 1
